NAME : TSP_INST.7556813.tour
COMMENT : Length = 7556813
COMMENT : Found by LKH [Keld Helsgaun] Sat Oct 18 11:07:55 2025
TYPE : TOUR
DIMENSION : 100
TOUR_SECTION
1
35
61
5
49
50
65
27
54
60
6
95
45
84
64
86
82
42
30
68
19
96
38
22
76
78
53
33
32
48
74
55
46
56
36
4
40
51
59
94
29
8
92
72
87
25
100
99
52
14
81
43
69
83
37
98
47
7
41
75
18
10
85
12
66
9
80
34
67
2
58
17
93
16
79
28
90
11
57
39
21
44
13
89
91
73
3
77
71
26
31
62
24
20
97
23
63
88
15
70
-1
EOF
